W=7;
H=5;

MAX_TIME=14;
MAX_TRACKS=14;

TARGET=(4,7);

TRAINS=[(3,1,RIGHT),(5,3,RIGHT),(3,2,RIGHT)];
DECOYS=[];

INIT_POS=[
(2,5,STRAIGHT_TD),
(3,1,STRAIGHT_RL),
(3,2,STRAIGHT_RL),
(3,4,ESWITCH_T_D_L),
(4,6,DSWITCH_R_L_D),
(4,7,STRAIGHT_RL),
(5,3,STRAIGHT_RL),
(5,4,STRAIGHT_RL),
];
TUNNEL_PAIRS=[];

GATES=[
(5,4,1,false),
];
ACTIVATIONS=[
(2,5,1),
];

DSWITCHES=[
(4,6,1),
];
STATIONS=[];
